p cnf 37 112
a 24 30 0
e 1 2 3 4 5 6 7 8 9 10 11 12 13 14 15 16 17 18 19 20 21 22 23 25 26 27 28 29 31 32 33 34 35 36 37 0
2 3 0
-2 3 0
-5 -3 0
-5 4 0
3 -4 5 0
1 -5 -6 0
-1 5 -6 0
1 5 6 0
-1 -5 6 0
-7 2 -8 0
7 -2 -8 0
-7 -2 8 0
7 2 8 0
-11 -10 0
-11 -1 0
10 1 11 0
-12 9 0
-12 11 0
-9 -11 12 0
8 12 -13 0
-8 -12 -13 0
8 -12 13 0
-8 12 13 0
-14 -6 0
-14 13 0
6 -13 14 0
9 -16 -17 0
-9 16 -17 0
9 16 17 0
-9 -16 17 0
15 -17 -18 0
-15 17 -18 0
15 17 18 0
-15 -17 18 0
-2 1 -19 0
2 -1 -19 0
-2 -1 19 0
2 1 19 0
-18 -19 -20 0
18 19 -20 0
-18 19 20 0
18 -19 20 0
-21 14 0
-21 20 0
-14 -20 21 0
7 4 -22 0
-7 -4 -22 0
7 -4 22 0
-7 4 22 0
2 23 0
-2 23 0
23 9 -24 0
-23 -9 -24 0
23 -9 24 0
-23 9 24 0
-24 11 -25 0
24 -11 -25 0
-24 -11 25 0
24 11 25 0
22 25 -26 0
-22 -25 -26 0
22 -25 26 0
-22 25 26 0
4 11 -27 0
-4 -11 -27 0
4 -11 27 0
-4 11 27 0
28 -9 0
28 -16 0
9 16 -28 0
29 23 0
29 -28 0
-23 28 -29 0
30 -11 0
30 29 0
11 -29 -30 0
-31 -9 0
-31 28 0
9 -28 31 0
-30 31 -32 0
30 -31 -32 0
-30 -31 32 0
30 31 32 0
2 3 -33 0
-2 -3 -33 0
2 -3 33 0
-2 3 33 0
-32 -33 -34 0
32 33 -34 0
-32 33 34 0
32 -33 34 0
35 27 0
35 -34 0
-27 34 -35 0
-36 -26 0
-36 35 0
26 -35 36 0
-21 36 -37 0
21 -36 -37 0
-21 -36 37 0
21 36 37 0
-30 -2 -19 0
29 -15 -16 0
8 -19 -17 -24 27 -28 0
-17 -36 -22 -30 28 -10 0
-10 3 30 0
5 6 -25 10 0
-5 -18 37 -16 0
-31 28 -8 -21 24 -36 23 0
35 -11 -33 18 -12 0
2 28 -37 30 -5 -13 0
37 0
